29
3 41 57 26 
2 52 40 
3 23 57 35 
1 13 
3 16 32 27 
3 37 5 38 
3 6 39 51 
2 25 59 
2 52 40 
1 28 
2 9 60 
2 4 18 
3 43 15 14 
2 55 24 
1 19 
2 7 49 
1 2 
2 1 10 
2 31 25 
3 33 51 56 
3 31 8 11 
2 42 47 
1 46 
3 26 44 22 
1 3 
2 36 12 
3 29 34 54 
1 53 
1 30 
